60

  0    1    2    3    1    2    3    4    2    3    4    5    3    4    5    6    4    5    6    7    5    6    7    8    6    7    8    9    7    8    9   10    8    9   10   11    9   10   11   12   10   11   12   13   11   12   13   14   12   13   14   15   13   14   15   16   14   15   16   17  
  1    0    1    2    2    1    2    3    3    2    3    4    4    3    4    5    5    4    5    6    6    5    6    7    7    6    7    8    8    7    8    9    9    8    9   10   10    9   10   11   11   10   11   12   12   11   12   13   13   12   13   14   14   13   14   15   15   14   15   16  
  2    1    0    1    3    2    1    2    4    3    2    3    5    4    3    4    6    5    4    5    7    6    5    6    8    7    6    7    9    8    7    8   10    9    8    9   11   10    9   10   12   11   10   11   13   12   11   12   14   13   12   13   15   14   13   14   16   15   14   15  
  3    2    1    0    4    3    2    1    5    4    3    2    6    5    4    3    7    6    5    4    8    7    6    5    9    8    7    6   10    9    8    7   11   10    9    8   12   11   10    9   13   12   11   10   14   13   12   11   15   14   13   12   16   15   14   13   17   16   15   14  
  1    2    3    4    0    1    2    3    1    2    3    4    2    3    4    5    3    4    5    6    4    5    6    7    5    6    7    8    6    7    8    9    7    8    9   10    8    9   10   11    9   10   11   12   10   11   12   13   11   12   13   14   12   13   14   15   13   14   15   16  
  2    1    2    3    1    0    1    2    2    1    2    3    3    2    3    4    4    3    4    5    5    4    5    6    6    5    6    7    7    6    7    8    8    7    8    9    9    8    9   10   10    9   10   11   11   10   11   12   12   11   12   13   13   12   13   14   14   13   14   15  
  3    2    1    2    2    1    0    1    3    2    1    2    4    3    2    3    5    4    3    4    6    5    4    5    7    6    5    6    8    7    6    7    9    8    7    8   10    9    8    9   11   10    9   10   12   11   10   11   13   12   11   12   14   13   12   13   15   14   13   14  
  4    3    2    1    3    2    1    0    4    3    2    1    5    4    3    2    6    5    4    3    7    6    5    4    8    7    6    5    9    8    7    6   10    9    8    7   11   10    9    8   12   11   10    9   13   12   11   10   14   13   12   11   15   14   13   12   16   15   14   13  
  2    3    4    5    1    2    3    4    0    1    2    3    1    2    3    4    2    3    4    5    3    4    5    6    4    5    6    7    5    6    7    8    6    7    8    9    7    8    9   10    8    9   10   11    9   10   11   12   10   11   12   13   11   12   13   14   12   13   14   15  
  3    2    3    4    2    1    2    3    1    0    1    2    2    1    2    3    3    2    3    4    4    3    4    5    5    4    5    6    6    5    6    7    7    6    7    8    8    7    8    9    9    8    9   10   10    9   10   11   11   10   11   12   12   11   12   13   13   12   13   14  
  4    3    2    3    3    2    1    2    2    1    0    1    3    2    1    2    4    3    2    3    5    4    3    4    6    5    4    5    7    6    5    6    8    7    6    7    9    8    7    8   10    9    8    9   11   10    9   10   12   11   10   11   13   12   11   12   14   13   12   13  
  5    4    3    2    4    3    2    1    3    2    1    0    4    3    2    1    5    4    3    2    6    5    4    3    7    6    5    4    8    7    6    5    9    8    7    6   10    9    8    7   11   10    9    8   12   11   10    9   13   12   11   10   14   13   12   11   15   14   13   12  
  3    4    5    6    2    3    4    5    1    2    3    4    0    1    2    3    1    2    3    4    2    3    4    5    3    4    5    6    4    5    6    7    5    6    7    8    6    7    8    9    7    8    9   10    8    9   10   11    9   10   11   12   10   11   12   13   11   12   13   14  
  4    3    4    5    3    2    3    4    2    1    2    3    1    0    1    2    2    1    2    3    3    2    3    4    4    3    4    5    5    4    5    6    6    5    6    7    7    6    7    8    8    7    8    9    9    8    9   10   10    9   10   11   11   10   11   12   12   11   12   13  
  5    4    3    4    4    3    2    3    3    2    1    2    2    1    0    1    3    2    1    2    4    3    2    3    5    4    3    4    6    5    4    5    7    6    5    6    8    7    6    7    9    8    7    8   10    9    8    9   11   10    9   10   12   11   10   11   13   12   11   12  
  6    5    4    3    5    4    3    2    4    3    2    1    3    2    1    0    4    3    2    1    5    4    3    2    6    5    4    3    7    6    5    4    8    7    6    5    9    8    7    6   10    9    8    7   11   10    9    8   12   11   10    9   13   12   11   10   14   13   12   11  
  4    5    6    7    3    4    5    6    2    3    4    5    1    2    3    4    0    1    2    3    1    2    3    4    2    3    4    5    3    4    5    6    4    5    6    7    5    6    7    8    6    7    8    9    7    8    9   10    8    9   10   11    9   10   11   12   10   11   12   13  
  5    4    5    6    4    3    4    5    3    2    3    4    2    1    2    3    1    0    1    2    2    1    2    3    3    2    3    4    4    3    4    5    5    4    5    6    6    5    6    7    7    6    7    8    8    7    8    9    9    8    9   10   10    9   10   11   11   10   11   12  
  6    5    4    5    5    4    3    4    4    3    2    3    3    2    1    2    2    1    0    1    3    2    1    2    4    3    2    3    5    4    3    4    6    5    4    5    7    6    5    6    8    7    6    7    9    8    7    8   10    9    8    9   11   10    9   10   12   11   10   11  
  7    6    5    4    6    5    4    3    5    4    3    2    4    3    2    1    3    2    1    0    4    3    2    1    5    4    3    2    6    5    4    3    7    6    5    4    8    7    6    5    9    8    7    6   10    9    8    7   11   10    9    8   12   11   10    9   13   12   11   10  
  5    6    7    8    4    5    6    7    3    4    5    6    2    3    4    5    1    2    3    4    0    1    2    3    1    2    3    4    2    3    4    5    3    4    5    6    4    5    6    7    5    6    7    8    6    7    8    9    7    8    9   10    8    9   10   11    9   10   11   12  
  6    5    6    7    5    4    5    6    4    3    4    5    3    2    3    4    2    1    2    3    1    0    1    2    2    1    2    3    3    2    3    4    4    3    4    5    5    4    5    6    6    5    6    7    7    6    7    8    8    7    8    9    9    8    9   10   10    9   10   11  
  7    6    5    6    6    5    4    5    5    4    3    4    4    3    2    3    3    2    1    2    2    1    0    1    3    2    1    2    4    3    2    3    5    4    3    4    6    5    4    5    7    6    5    6    8    7    6    7    9    8    7    8   10    9    8    9   11   10    9   10  
  8    7    6    5    7    6    5    4    6    5    4    3    5    4    3    2    4    3    2    1    3    2    1    0    4    3    2    1    5    4    3    2    6    5    4    3    7    6    5    4    8    7    6    5    9    8    7    6   10    9    8    7   11   10    9    8   12   11   10    9  
  6    7    8    9    5    6    7    8    4    5    6    7    3    4    5    6    2    3    4    5    1    2    3    4    0    1    2    3    1    2    3    4    2    3    4    5    3    4    5    6    4    5    6    7    5    6    7    8    6    7    8    9    7    8    9   10    8    9   10   11  
  7    6    7    8    6    5    6    7    5    4    5    6    4    3    4    5    3    2    3    4    2    1    2    3    1    0    1    2    2    1    2    3    3    2    3    4    4    3    4    5    5    4    5    6    6    5    6    7    7    6    7    8    8    7    8    9    9    8    9   10  
  8    7    6    7    7    6    5    6    6    5    4    5    5    4    3    4    4    3    2    3    3    2    1    2    2    1    0    1    3    2    1    2    4    3    2    3    5    4    3    4    6    5    4    5    7    6    5    6    8    7    6    7    9    8    7    8   10    9    8    9  
  9    8    7    6    8    7    6    5    7    6    5    4    6    5    4    3    5    4    3    2    4    3    2    1    3    2    1    0    4    3    2    1    5    4    3    2    6    5    4    3    7    6    5    4    8    7    6    5    9    8    7    6   10    9    8    7   11   10    9    8  
  7    8    9   10    6    7    8    9    5    6    7    8    4    5    6    7    3    4    5    6    2    3    4    5    1    2    3    4    0    1    2    3    1    2    3    4    2    3    4    5    3    4    5    6    4    5    6    7    5    6    7    8    6    7    8    9    7    8    9   10  
  8    7    8    9    7    6    7    8    6    5    6    7    5    4    5    6    4    3    4    5    3    2    3    4    2    1    2    3    1    0    1    2    2    1    2    3    3    2    3    4    4    3    4    5    5    4    5    6    6    5    6    7    7    6    7    8    8    7    8    9  
  9    8    7    8    8    7    6    7    7    6    5    6    6    5    4    5    5    4    3    4    4    3    2    3    3    2    1    2    2    1    0    1    3    2    1    2    4    3    2    3    5    4    3    4    6    5    4    5    7    6    5    6    8    7    6    7    9    8    7    8  
 10    9    8    7    9    8    7    6    8    7    6    5    7    6    5    4    6    5    4    3    5    4    3    2    4    3    2    1    3    2    1    0    4    3    2    1    5    4    3    2    6    5    4    3    7    6    5    4    8    7    6    5    9    8    7    6   10    9    8    7  
  8    9   10   11    7    8    9   10    6    7    8    9    5    6    7    8    4    5    6    7    3    4    5    6    2    3    4    5    1    2    3    4    0    1    2    3    1    2    3    4    2    3    4    5    3    4    5    6    4    5    6    7    5    6    7    8    6    7    8    9  
  9    8    9   10    8    7    8    9    7    6    7    8    6    5    6    7    5    4    5    6    4    3    4    5    3    2    3    4    2    1    2    3    1    0    1    2    2    1    2    3    3    2    3    4    4    3    4    5    5    4    5    6    6    5    6    7    7    6    7    8  
 10    9    8    9    9    8    7    8    8    7    6    7    7    6    5    6    6    5    4    5    5    4    3    4    4    3    2    3    3    2    1    2    2    1    0    1    3    2    1    2    4    3    2    3    5    4    3    4    6    5    4    5    7    6    5    6    8    7    6    7  
 11   10    9    8   10    9    8    7    9    8    7    6    8    7    6    5    7    6    5    4    6    5    4    3    5    4    3    2    4    3    2    1    3    2    1    0    4    3    2    1    5    4    3    2    6    5    4    3    7    6    5    4    8    7    6    5    9    8    7    6  
  9   10   11   12    8    9   10   11    7    8    9   10    6    7    8    9    5    6    7    8    4    5    6    7    3    4    5    6    2    3    4    5    1    2    3    4    0    1    2    3    1    2    3    4    2    3    4    5    3    4    5    6    4    5    6    7    5    6    7    8  
 10    9   10   11    9    8    9   10    8    7    8    9    7    6    7    8    6    5    6    7    5    4    5    6    4    3    4    5    3    2    3    4    2    1    2    3    1    0    1    2    2    1    2    3    3    2    3    4    4    3    4    5    5    4    5    6    6    5    6    7  
 11   10    9   10   10    9    8    9    9    8    7    8    8    7    6    7    7    6    5    6    6    5    4    5    5    4    3    4    4    3    2    3    3    2    1    2    2    1    0    1    3    2    1    2    4    3    2    3    5    4    3    4    6    5    4    5    7    6    5    6  
 12   11   10    9   11   10    9    8   10    9    8    7    9    8    7    6    8    7    6    5    7    6    5    4    6    5    4    3    5    4    3    2    4    3    2    1    3    2    1    0    4    3    2    1    5    4    3    2    6    5    4    3    7    6    5    4    8    7    6    5  
 10   11   12   13    9   10   11   12    8    9   10   11    7    8    9   10    6    7    8    9    5    6    7    8    4    5    6    7    3    4    5    6    2    3    4    5    1    2    3    4    0    1    2    3    1    2    3    4    2    3    4    5    3    4    5    6    4    5    6    7  
 11   10   11   12   10    9   10   11    9    8    9   10    8    7    8    9    7    6    7    8    6    5    6    7    5    4    5    6    4    3    4    5    3    2    3    4    2    1    2    3    1    0    1    2    2    1    2    3    3    2    3    4    4    3    4    5    5    4    5    6  
 12   11   10   11   11   10    9   10   10    9    8    9    9    8    7    8    8    7    6    7    7    6    5    6    6    5    4    5    5    4    3    4    4    3    2    3    3    2    1    2    2    1    0    1    3    2    1    2    4    3    2    3    5    4    3    4    6    5    4    5  
 13   12   11   10   12   11   10    9   11   10    9    8   10    9    8    7    9    8    7    6    8    7    6    5    7    6    5    4    6    5    4    3    5    4    3    2    4    3    2    1    3    2    1    0    4    3    2    1    5    4    3    2    6    5    4    3    7    6    5    4  
 11   12   13   14   10   11   12   13    9   10   11   12    8    9   10   11    7    8    9   10    6    7    8    9    5    6    7    8    4    5    6    7    3    4    5    6    2    3    4    5    1    2    3    4    0    1    2    3    1    2    3    4    2    3    4    5    3    4    5    6  
 12   11   12   13   11   10   11   12   10    9   10   11    9    8    9   10    8    7    8    9    7    6    7    8    6    5    6    7    5    4    5    6    4    3    4    5    3    2    3    4    2    1    2    3    1    0    1    2    2    1    2    3    3    2    3    4    4    3    4    5  
 13   12   11   12   12   11   10   11   11   10    9   10   10    9    8    9    9    8    7    8    8    7    6    7    7    6    5    6    6    5    4    5    5    4    3    4    4    3    2    3    3    2    1    2    2    1    0    1    3    2    1    2    4    3    2    3    5    4    3    4  
 14   13   12   11   13   12   11   10   12   11   10    9   11   10    9    8   10    9    8    7    9    8    7    6    8    7    6    5    7    6    5    4    6    5    4    3    5    4    3    2    4    3    2    1    3    2    1    0    4    3    2    1    5    4    3    2    6    5    4    3  
 12   13   14   15   11   12   13   14   10   11   12   13    9   10   11   12    8    9   10   11    7    8    9   10    6    7    8    9    5    6    7    8    4    5    6    7    3    4    5    6    2    3    4    5    1    2    3    4    0    1    2    3    1    2    3    4    2    3    4    5  
 13   12   13   14   12   11   12   13   11   10   11   12   10    9   10   11    9    8    9   10    8    7    8    9    7    6    7    8    6    5    6    7    5    4    5    6    4    3    4    5    3    2    3    4    2    1    2    3    1    0    1    2    2    1    2    3    3    2    3    4  
 14   13   12   13   13   12   11   12   12   11   10   11   11   10    9   10   10    9    8    9    9    8    7    8    8    7    6    7    7    6    5    6    6    5    4    5    5    4    3    4    4    3    2    3    3    2    1    2    2    1    0    1    3    2    1    2    4    3    2    3  
 15   14   13   12   14   13   12   11   13   12   11   10   12   11   10    9   11   10    9    8   10    9    8    7    9    8    7    6    8    7    6    5    7    6    5    4    6    5    4    3    5    4    3    2    4    3    2    1    3    2    1    0    4    3    2    1    5    4    3    2  
 13   14   15   16   12   13   14   15   11   12   13   14   10   11   12   13    9   10   11   12    8    9   10   11    7    8    9   10    6    7    8    9    5    6    7    8    4    5    6    7    3    4    5    6    2    3    4    5    1    2    3    4    0    1    2    3    1    2    3    4  
 14   13   14   15   13   12   13   14   12   11   12   13   11   10   11   12   10    9   10   11    9    8    9   10    8    7    8    9    7    6    7    8    6    5    6    7    5    4    5    6    4    3    4    5    3    2    3    4    2    1    2    3    1    0    1    2    2    1    2    3  
 15   14   13   14   14   13   12   13   13   12   11   12   12   11   10   11   11   10    9   10   10    9    8    9    9    8    7    8    8    7    6    7    7    6    5    6    6    5    4    5    5    4    3    4    4    3    2    3    3    2    1    2    2    1    0    1    3    2    1    2  
 16   15   14   13   15   14   13   12   14   13   12   11   13   12   11   10   12   11   10    9   11   10    9    8   10    9    8    7    9    8    7    6    8    7    6    5    7    6    5    4    6    5    4    3    5    4    3    2    4    3    2    1    3    2    1    0    4    3    2    1  
 14   15   16   17   13   14   15   16   12   13   14   15   11   12   13   14   10   11   12   13    9   10   11   12    8    9   10   11    7    8    9   10    6    7    8    9    5    6    7    8    4    5    6    7    3    4    5    6    2    3    4    5    1    2    3    4    0    1    2    3  
 15   14   15   16   14   13   14   15   13   12   13   14   12   11   12   13   11   10   11   12   10    9   10   11    9    8    9   10    8    7    8    9    7    6    7    8    6    5    6    7    5    4    5    6    4    3    4    5    3    2    3    4    2    1    2    3    1    0    1    2  
 16   15   14   15   15   14   13   14   14   13   12   13   13   12   11   12   12   11   10   11   11   10    9   10   10    9    8    9    9    8    7    8    8    7    6    7    7    6    5    6    6    5    4    5    5    4    3    4    4    3    2    3    3    2    1    2    2    1    0    1  
 17   16   15   14   16   15   14   13   15   14   13   12   14   13   12   11   13   12   11   10   12   11   10    9   11   10    9    8   10    9    8    7    9    8    7    6    8    7    6    5    7    6    5    4    6    5    4    3    5    4    3    2    4    3    2    1    3    2    1    0  

  0    1   25    1    0   52    5    0    1    1    0    0    0   17   17   68    1    1   33    0    6    0    0    1    0    0    0    5    0    1    1    0    2    0    0    0   12    0   16    3    2    0    1    1   25    0    0    0    0    0    0    0    0    0    0   17   74    0    1    1  
  5    0    1   99    0    1   18    0    1   33    0    1    0    1   46    1   14    0    1    0    1    1    1    1    6    0    0    5    0    0    1    0    7    0    0    0    3    0    0   10    1    0   88    1    1    0    0    0    0    0    0    1    0    0   88    1   52    0    3    1  
  1    1    0    0    0    3    0    0    0    1    0    0    0    1    3    0    0    0    1    0   15    2    0    7   99    0    0   52    0    1   22    9    1    0    0    1    1    0    0    3    1    0    0    1    4    1    1    0    0    0    2    1    0    0    1    0   54   16    0   31  
  1    1    1    0    0    1    1    0   51    0    1    3    0    1    3   31   65    1    0    0    0    0    0    0    0    0    0    0    0    1    0    1    0    0    0    0    0    0    0    1   50   47    1    0    0    0    1    0    0    0    0    0    1    0    0   13    0    1    1    0  
  0    0    0    0    0    0    0    7    0    0    0    1   21    0    0    3   72    0    1    0    3    0   18    0    0   18    1    0    1    0    0    0    0   32   33   13    0   50    1    0    0    1    0    0    0   18    1    1   70   19    6   38   14    1   75    0    0    0    0    0  
  8    1    1    1    0    0   18    0    1    1    0    0    0    4    0    1    0    0    0    0    0    0    0    0    0    0    0    1    0    0   19    0   33    0    0    0    0    0    0    5    1    0    1    0    1    0    0    0    0    4    0    0    0    0    0    1    1    0    1    5  
  1    7    0    1    0   99    0    2    3    0   10   46    2    3    0   10    8    3    3    0    1    0    1    0    0    0   41   18    0    1   16    1    1    0    1    0    1    0    0   31    0    1   35    0    0    0    1   64    0    1    0    2    1    4   33   15    1    1    1    0  
  0   11    1    0   10    0    2    0    0    0    0   16    0    1    0   15   21    0    1   45    3    1    1    0    0    5    1    1   53    0    0    0    1    1    1    1   20    1    2    0    0    1    1    0    0    3    1    2   16    1    0    1    1    1    1    0    0    0    0    0  
  1    1    0   12    0    1    1    0    0    0   24    1    0    1    0   52   61    1    0    0    0    0    0    0    0    0    0   60    0   86    0    3    0    0    0    0    0    1    0   19    0    0   22    0    0    0    1    1    0    0    0    0    0    0    0    1    7    1   47    1  
  8    2    1   69    0   24    0    0    0    0    0    0    0    1   16    0    0    0    0    0    0   99    0   56   14    0    0   24    0    0   94    0    1    0    0    0    0    0    0   92    1    0    0    1    1    0    0    0    0    0    0    0    0    0    0    0    3    0    0   47  
  0    0    0    4    1    0    1    0    2    0    0    1    1    0    0   76   21    1    0    0    0    0    1    0    0    0    1    0    0    3    0    1   18    0    1    0    0    0    0   22    0    0    2    0    0    0    1    0    0    0    0    0    0    0    0    1    0    1    3    0  
  0   59    0   21   24    0    1    1    1    0   23    0    1    0    0    1    7    1    0    0    1    0    1    0    0   41    1    1    0   18    0    1    0    0    7    0    0    0    0    0    0   23    1    0    0    0    1    0    0    1    0    0    1    1    0    1    0    1   92    0  
  0    0    0    0   82    0    1    0    0    0   33   86    0    0    0    3    1   28    1    0    1    0    1    0    0    1    1   41    0    1    0   48    0    0    7    0    0    0    0    0    0    1    1    0    0    0   36    0    0    1    0    0    5    3    0   18    0   42    1    0  
 13    1    1    1    0    8   76    0   38    1    0    0    0    0   86   10    0    0    0    0    0    0    0    1    0    0    0    2    0    0   56    0    1    0    0    0    0    0    0    1   17    0   93    0    3    0    0    0    0    0    0    0    0    0    0   41   20    0    4    4  
 27    1    1    0    0    0    0    0    0    9    0    0    0    1    0    0    1    0    0    0    0   89    0    1    1    0    0   87    0    0    1    0   57    0    0   32    1    0    0   59    1    0    0   18   97    0    0    0    0   52    0    0    0    0    0    0    1    5    0    1  
 18    1    0   37    1    3    1    1   34    0   10    1    8    7    0    0    8    1    1    0    1    0    1    0    0    5    6    1    0    1    1    4   25    0    1    0    1    0    0    1    0    1   31    0    0    0    2    0    0    1    0   61    1    4    0    1   86   82   77    0  
  1    1    0    1    1    0    9    1    1    0   45   89   13    0    0    1    0    1    3    0   16    0    7    0    0   34   10    1    0   82    0   11    1    0    8    0    1    0    0    0    0   24    8    0    0    0    2    0    0    1    0   90    1    2    2    7   52    1    2    0  
  1    0    0    1    0    0    1    9    2    0   24   31    1    0    0    1   42    0    0    0    0    0    1    0    0    0    1    1    0    1    0    7    0    0    1    0    0    0    0    1    0    0   12    0    0    0    1    0    0    0    0    0    0   21    0    1    0   90    6    0  
  1    1    1    0    1    0    1    1    0    0    0    0    0    0    0   37   31    0    0    1   80    1    0    1    1    0   39    7    1    0    1    0    1   96   10    1    1    0    3    0    0    8    1    1    4   70    0    3    1    1    3    1    1    1    4   71   42    0    0    0  
  0    0    0    0    0    0    0   97    0    0    0    0    1    0    0    0    0    0    1    0    0    1    0    0    1    0    0    0    1    0    0    0    1   63    0    2    1    0   14    0    0    0    0    4    0   25    0   10   78    0   31    1    0    0    1    0    0    0    0    0  
  1    1    2    0    6    0    1    1    0    0    0   28    1    0   94    1    1    0   15    0    0    0    6    1   38   45    1   14    1   85   40   51   11   18    5    1    1    0   77    3   50    1    1   16    1   27    1    1    2    1    0    1    5    1    6    1   16    0    0    0  
  0   26    1    0    0    0    0    0    0    6    0    0    1    0   12    0    0    0    1    1    0    0    0    1    4    0    0   84    0    0   21    0    1    0    0    1    1    0    0    0    1    0    0    1   52   39    0    0    0    0    3    1    0    0    1    0   41    0    0   97  
  0    0    0    0  100    0   56    2    0    0    1    1   13    0    0   37   12   37    0    0    1    0    0    0    0   10   32    0    0   33    0    2    0    0    8    0    0    0    0    0    0   89    1    0    0    0    4    0    0   19    0    0   60    1    0    1    0    1    0    0  
  1    5    1    0    0    0    0    0    0   39    0    0    0   57    8    0    0    0    1    0    7   21    0    0    4    0    0   60    0    0   83    0    1    0    0    1    1    0    0    1    1    0    0   81    1    2    0    0    0    0    1    2    0    0    1    0   19    1    0    1  
  0   87    1    0    0    0    0    0    0    3    0    0    0    0   17    0    1    0    1    1    3    1    0    4    0    0    1    2    0    0    5    1   17    0    0   15   26    0    0    0    2    0    0    6    1    1    0    0    0    0   68   62    0    0   42    0   77    0    0    1  
  0    0    0    0    1    0    0    1    0    0    0    2   32    0    2   13    1    0    0    0   72    0    1    0    0    0    1    0   21    0    0    0    0   58    1    0    0    1    0    0    0    1    0    0    0    0    6    1    1    1    0    0    1    1    0    0    0    0    0    0  
  0    0    0    0    1    0   15    3    0    0    1   23    1    0    0    1    1   14    1    0    1    1    5    0    0    2    0    1   73    1    0    1    1   25   36    0    3    0    0    0    0   18    1    0    0   67   10    1    6   14    0   30   36   50    1    1    1    1    0    0  
 91   25    1    0    0    9   32    1   53   14    0    2    0   18    1   29    1    5    1    0   26   24    0    2    1    0    8    0    0   97    1    1    5    1   28    1    1    0    0    1    1    0    1    1    1    4    2    0    0    0    0    1    0   79    1    1    1    5    1    1  
  0    0    0    0   39    0    0   29    0    0    0    0    0    0    0    0    0    0    1    1    1    0    0    0    0    1    1    0    0    0    0    0    0    1    1    0    0   72    2    0    0    1    1    1    0    6    0    1    9    4    0    2    1   45    1    1    0    0    0    0  
  1    0    0   65    0    0    8    0    2    0   15    2    1    0    0   16   40    1    0    1    1    0    2    0    0    0   29    9    0    0    0    1    0    0   35    0    0    0    0    0    0   30   63    0    0    0    1    0    0    1    0    0    4    1    0    1    0    8   84    0  
 19    1    1    0    0    1    1    0    0    1    1    0    0    1   47    4    0    0   12    0    1    1    0   32    1    0    0   47    0    0    0    0    1    0    0    1   36    0    0   11    1    0    2   14   26    3    0    0    0    1    1    1    0    0    1    1   13    0    7    5  
  0    0    0   14    0    0   38    0    4    0    1    1   70    0    0    6   43    1    0    0   19    0    7    0    0    0    5    1    0    1    0    0    0    0    1    0    0    0    0    0    0    1    1    0    0    0    6    0    0   55    0    0    1   51    0    1    0    1    1    0  
 30    2    1    0    0   21    1   43    0    1    0    0    0    5   98    1    1    0    1    1    1    9    0    3   96    0   26    2    1    0    1    0    0   10    1    1    6    0    0    1   57    0    4    1    1    1    0    0    0    0   10    2    0    0   12    1    2    0    0    1  
  0    0    0    0    1    0    0    1    0    0    0    0    0    0    0    0    3    0   73   94   69    0    0    1    0    1    7    0    1    0    0    0    6    0   62    1    1    1    1    0    0    4    0    0    0    3    0   10   29    1   12    6    4    1    6    0    1    0    0    0  
  0    1    0    0    1    0   82    1    0   32   63   33    1    0    0   10    1   50    6    0    2    0    1    0    0    1    4    1   43   64    0   94    8    5    0    0    1    0    0    0    0    3    1    0    0   61   61    2    1    1    0    1   55    1    2    1    1   99    0    9  
  0    0   25    0    0    0    0    1    0    0    0    0    0    0    1    0    0    0    3    1   80    5    0    1    1    0    0    1   38    0    1    0    1    1    0    0    5    0    1    0    0    0    0   14    4   12    0    0   50    0    1   42    0    0    5    0   59    0    0    0  
 19    6    4    0    0    0    1    9    0    0    0    0    0    0    1    1   43    0   71    1    1    1    0    1    1    0    2    1    0    0    1    0    1    3    1   37    0    0    0    1    0    0    1   13    1    1    0    0    0    0   37    1    0   66    1    1    5    0    0    1  
  0    0    0    0    2    0    0    1    0    0    0    0    0    0    0    0    0    0    0    0    0    0    0    0    0   25    0    0   19    0    0    0    0   12    0    0    0    0    0    0    0   54    0    0    0    0    0   78    1    2    0    0    1    2    1    0    0    0    0    0  
  0    0    0    0   19    0    0   29    0    0    0    0    0    0    0    0    0    0    1    6    1    0    0    1    0    0    0    0    1    0    0    0    0    1    0    1    0    0    0    0    0    1    0    0    0    3    0    1   86    1    1    1    0    0    7    0    9    0    0    0  
  1    2    3    1    0   25   31    0    1    1    0    0    0    1    1    2    0    0    0    0    0    0    1    1    0    0    0    3    0    0    1    0    1    0    0    0    1    0    0    0    1    0    1    0   25    0    0    0    0    7    0    0    0    1    0    1    9    0    1    1  
  1   11    1    0    0   29    0    0    0    5    0    0    0    1   77    0    0    0    0    0    0   11    0    1    1    0    1   14    0    0    1    0    4   11    0    0    0    0    0   14    0    0    0   24    1    0    0    4    0    0    0    0    0    0    0    0    1    0    0    1  
  0    0    0    0    1    0   11   31   10    0    0    1    1    0    0    1    4    0    1    0    1    0    1    0    1    4    1    0   38    1    0    1    0    5    1    0    0    9    1    0    0    0    2    0    0    1    3   15    1    1    0    1    1    1    1    1    0    0    0    0  
  1   43    0   25    0    5    1    5    1    0   11   20    3   24    0    1    4    1    9    0    1    0   24    1    0    0    2    1    0    1    1    1   39   96    1    0    2    0    0   29    0    2    0    0    0    0    1    0    0    1    1    0    0    4    0    1    4   50    1    0  
  0    2    1    0    0    0    0    0    0    2    0    0    0    0    1    0    0    0   87    1    1   67    0    6   47    0    0   44    0    0    4    0    1    0    0   50    1    0    0    0    1    0    0    0    1   42    0    0    0    0    2    1    0    0    1    0   39    0    0    1  
  1    1    5    0    0    1    0    0    0    1   54    0    0   42    1    0    0    0    1    0    1    1    0    2   49    0    0    1    0    0    1    0    9    0    0   27   88    0    0    1    1    0    0    4    0    1    0    0    0    0    1    1    0    1   17    0   11    0    0   50  
  0   16   10    0    3    0    0    1    0    0    0    0    0    0    0    0    0   46    1    9    3    1    0    1    7    0    1   45    1    0    1    0    8    1    1   14   43    0    1    0    0    3    0    1   27    0    0   57    1    6    1    1    0   10   21    0   27    0    0    0  
  1    0    0    1   60    0    1    3    1    0    1    1    1    0    0   16    1   72    0    0    1    0    1    0    0    4    1   61    0   35    0   11    0    0    2    0    0    0   55    0    0   12   66    0    0    0    0    0    0    1    0    0   50    1    0   26    0    1    1   37  
  0    0    0    0    1    0    0   90    0    0    0    0    0    0    0    0    0    0    3   12    1    0    0    0    0    1    1    0    1    0    0    0    0    1    5    0    0    1   22    0    0    9    0    0    0   23    0    0    5   78    0    8    1    1   71    0    0    0    0    0  
  0    0    0    0    5    0    0    1    0    0    0    0    0    0    0    1    0    0    2    1    3    0    0    0    0    1    1    0    2    0    0    0    0    1    1   42    1    6    1    0    0    1    0    0    4    1    0    2    0    6   32    1    6    1   46    0    0    0    0    0  
  0    0    0    0    4    0    8    1    0    0    0    1    1    0    0    1    1    0    1    0    2    0    1    0    0    1    1    0   15    1    0    1    1    4   18    0    0   19    1    0    0    7    0    0    0   69    2   11    1    0    0    1   26    1    1   26    0    0    0    0  
  0    0    4    0    0    0    0    0    0    0    0    0    0    0    0    0    0    0   16    1    0   12    0    1   52    0   30    0    0    0    1    0   23    2    0    7    2    0    5    0    0    0    0   56   41   14    0    0   78    0    0    4    0    0    2    0    0    0    8    0  
  0    1    1    0    1    0   70    1    0    0    0    0    0    0    0    2   45    0   18    1   64   38    0    9    1    0    1    1   23    0    1    0    1    1   67    1    1    0    1    0    0   18    0    2   94    2    1    1    2    1    8    0    0    2    6    0    2    0    0    0  
  0    0    0    0    1    0    1    1    0    0    0    5   11    0    0    2    1    0    0    0    2    0   41    0    0    1   40    0   76    1    4    1    0    9   56    0    0    1    0    0    0   48    0    0    0    0   12    1    1    1    0    0    0    1    5   30    0    0    0    0  
  1    0    0    0   13    0    3    1    0    0    0    4    1    0    0    1   55    1    1    0    2    0    1    0    0    3   20    2    1   73    0   18    0    4    8    0    1    1    0    0    0    3    1    0    0    1    1    3    1    1    0   11   51    0    1    1    0    1    0    0  
  0    0   14    0   51    0   35    1    0    0    0    0    0    0    0    0    1    0    1    1   15   52   41   35    4    0    1   96    1    0    1    0    9    1    1    1    9    0    1    0    0    7    0   32   70   81    0    1   99    1   27    1    1    2    0    0    1    0    0    0  
  1    1    0    1    0    1   34    0    1    0    7   82   19    1    0    1   62    3   14    0    4    0    1   43    0    0   39    3    0    1    1   31   24    0    3    0   23    0    0    2    0    1    1    0    2    0    1    0    0    0    0    0    3  100    0    0    2    1    2    0  
 42   87    1    0    0    1    7    0    1   17    0    0    0    1    1    7    1    0    1    0    1   90    0    1   44   22   17   14    0    0   83    0    1    0    1    1    1    0    0    1    1    0   91   75    2   22    0    0    0    0    0    4    0    0   64   29    0    0   45   42  
  1    0    0   66    0    0    1    0   34    0    1    1    1    0    0   80   52    1    0    0    0    0    1    0    0    0    1    0    0    1    0    1    0    0    1    0    0    0    0    0    0    0    4    0    0    0    1    0    0    0    0    0    0   22    3    3    1    0   15    0  
  1   27    1   10    0    1    1    0    1    0    1   23    1    9    0   30    1    3    0    0    0    0    0    0    0    0    0    1    0    1    0    9    0    0    0    0    0    0    0   89    0    0   20    0    0    0    1    0    0    0    0    0    0    0    0    1    5    1    0    0  
  1   19    1    0    0    1    0    0   22   31    0    0    0    1    2    0    0    0    0    0    0    1    0    1    1    0    0   52    0    0   93    0   41    0    0    0   50    0    0    1   56    0    0    9    1    0    0   46    0    0    0    0    0    0    0    0    7    0    0    0  
